p cnf 14 21
14 -13 -2 0
14 -12 -6 0
14 -7 5 0
-14 -6 3 0
13 10 6 0
13 -10 3 0
-13 8 6 0
-13 -5 3 0
-12 9 6 0
-12 9 3 0
-12 8 -3 0
12 6 2 0
-11 -9 -8 0
-10 8 7 0
-10 -7 4 0
-10 -7 -3 0
10 6 -5 0
-10 3 2 0
-9 5 2 0
9 -4 -1 0
7 6 1 0
